50
50
1 4
2 2
3 3
4 3
5 9
6 5
7 7
8 3
9 10
10 10
11 4
12 8
13 3
14 2
15 5
16 7
17 7
18 5
19 2
20 2
21 1
22 5
23 4
24 3
25 1
26 4
27 8
28 2
29 9
30 4
31 10
32 2
33 8
34 4
35 4
36 8
37 1
38 3
39 1
40 10
41 4
42 6
43 7
44 8
45 7
46 1
47 4
48 5
49 7
50 7
